Route #1: 67 118 109 93 135 39 104 11 114 64 113 27 76 95 4 77 130 106 139 35 122 31 5
Route #2: 26 37 17 33 8 20 86 36 29 134 48 97 63 82 101 12 75 45 65 62 46 90 13 55
Route #3: 79 18 3 42 87 6 108 9 44 115 111 54 103 7 32 99 80 61 73 112 2 88 49 94 117
Route #4: 127 137 116 125 71 41 60 136 59 68 47 102 21 53 89 52 50 51
Route #5: 119 66 91 19 126 34 105 133 24 22 124 83 138 56 143 84 57 92 121 98 110
Route #6: 10 74 58 96 140 15 38 123 78 23 120 81 40 30 43 132 70 141 142 16 28 107 25 100 72 131
Route #7: 14 128 85 129 69
Cost 22846
